% number of games is 34

num = 34;
cap = 5;
refill = 2;
fun = [-7, 13, -12, -6, -2, 15, -19, -1, 18, 3, 18, -5, 8, -15, -11, -19, 1, 9, 3, 4, -10, 15, -11, 12, -4, -20, 14, -11, -19, 20, 11, -2, 13, -8];
